sets/C/cp-n19-k3.opt
Route #1: 16 11 8 6 1 7 17 9
Route #2: 15 4 18 2
Route #3: 13 14 3 12 5 10
cost 92
